results/x-long/X-n143-k7.vrp_seed-36.out
15718	1176
